
Log started (V11.0.0) Sun May 18 15:26:59 2008

Tried aggregator 1 time.
Reduced MIP has 530 rows, 15001 columns, and 30030 nonzeros.
Presolve time =    0.11 sec.
Clique table members: 500.
MIP emphasis: balance optimality and feasibility.
MIP search method: dynamic search.
Parallel mode: none, using 1 thread.
Root relaxation solution time =    1.41 sec.

        Nodes                                         Cuts/
   Node  Left     Objective  IInf  Best Integer     Best Node    ItCnt     Gap

*     0+    0                        42100.0000      624.4900      812   98.52%
*     0+    0                          707.0000      624.4900      812   11.67%
      0     0      625.0000    57      707.0000      Fract: 8      867   11.60%
*     0+    0                          677.0000      625.0000      867    7.68%
      0     0      625.3497    64      677.0000      625.3497     1021    7.63%
*     0+    0                          672.0000      625.3497     1021    6.94%
      0     0      627.9726    73      672.0000      Cuts: 11     1424    6.55%
*     0+    0                          668.0000      627.9726     1424    5.99%
      0     0      628.4756    80      668.0000       Cuts: 4     1615    5.92%
*     0+    0                          667.0000      628.4756     1615    5.78%
      0     0      628.5647    86      667.0000       Cuts: 3     1712    5.76%
*     0+    0                          666.0000      628.5647     1712    5.62%
      0     0      628.5935    87      666.0000       Cuts: 3     1825    5.62%
*     0+    0                          662.0000      628.5935     1825    5.05%
      0     0      628.5943    92      662.0000     Covers: 1     1846    5.05%
*     0+    0                          660.0000      628.5943     1846    4.76%
*     0+    0                          657.0000      628.5943     1846    4.32%
*     0+    0                          655.0000      628.5943     1846    4.03%
*     0+    0                          647.0000      628.5943     1846    2.84%
      0     2      629.0000    73      647.0000      628.5943     1846    2.84%
    100    93      629.0000    54      647.0000      629.0000    11536    2.78%
    200   175      629.0000    56      647.0000      629.0000    21952    2.78%
    300   242      629.3559    73      647.0000      629.0000    39868    2.78%
*   400+  309                          645.0000      629.0000    58802    2.48%
    400   310      629.2655    75      645.0000      629.0000    58802    2.48%
    500   384      629.0000    67      645.0000      629.0000    69298    2.48%
*   510+  258                          644.0000      638.1693    73527    0.91%
    600   268      642.0000    19      644.0000      639.0000    74851    0.78%
    700   214      642.0000    23      644.0000      639.0000    78482    0.78%
    800   156      642.0000    28      644.0000      639.0000    85171    0.78%
    900   107        cutoff            644.0000      639.0000    93382    0.78%
   1000   107        cutoff            644.0000      639.0000    99269    0.78%
Elapsed time = 122.69 sec. (tree size =  1.22 MB, solutions = 14)
   1100   107        cutoff            644.0000      639.0000   105990    0.78%
   1200   115      642.0000    35      644.0000      639.0000   114604    0.78%
   1300   131      642.0000    30      644.0000      639.0000   122759    0.78%
   1400   131        cutoff            644.0000      639.0000   127684    0.78%
   1500   132    infeasible            644.0000      639.0000   130933    0.78%
   1600   134      643.0000    28      644.0000      639.0000   133134    0.78%
   1700   136      643.0000    31      644.0000      639.0000   134953    0.78%
   1800   180      642.0000     8      644.0000      639.0000   138189    0.78%
   1900   258      642.0000    18      644.0000      639.0000   140619    0.78%
   2000   354      642.0000    12      644.0000      639.0000   142547    0.78%
Elapsed time = 182.02 sec. (tree size =  4.23 MB, solutions = 14)
   2100   439      642.0000    14      644.0000      639.0000   147723    0.78%
   2200   524      642.0000    28      644.0000      639.0000   154756    0.78%
   2300   617      642.0000    26      644.0000      639.0000   159356    0.78%
*  2310+  538                          643.0000      639.0000   159516    0.62%
*  2310+   53                          642.0000      639.0000   159516    0.47%

Cover cuts applied:  46
Mixed integer rounding cuts applied:  2

Solution pool: 16 solutions saved.

MIP - Integer optimal solution:  Objective = 6.4200000000e+002
Solution time =  211.23 sec.  Iterations = 163203  Nodes = 2363


Incumbent solution
Variable Name           Solution Value
Cmax                        642.000000
X_1_16                        1.000000
X_2_16                        1.000000
X_3_25                        1.000000
X_4_23                        1.000000
X_5_4                         1.000000
X_6_8                         1.000000
X_7_23                        1.000000
X_8_7                         1.000000
X_9_3                         1.000000
X_10_17                       1.000000
X_11_14                       1.000000
X_12_1                        1.000000
X_13_1                        1.000000
X_14_17                       1.000000
X_15_26                       1.000000
X_16_1                        1.000000
X_17_13                       1.000000
X_18_23                       1.000000
X_19_1                        1.000000
X_20_8                        1.000000
X_21_5                        1.000000
X_22_25                       1.000000
X_23_10                       1.000000
X_24_17                       1.000000
X_25_28                       1.000000
X_26_24                       1.000000
X_27_1                        1.000000
X_28_3                        1.000000
X_29_13                       1.000000
X_30_6                        1.000000
X_31_1                        1.000000
X_32_26                       1.000000
X_33_12                       1.000000
X_34_16                       1.000000
X_35_18                       1.000000
X_36_2                        1.000000
X_37_24                       1.000000
X_38_27                       1.000000
X_39_9                        1.000000
X_40_8                        1.000000
X_41_25                       1.000000
X_42_2                        1.000000
X_43_1                        1.000000
X_44_14                       1.000000
X_45_14                       1.000000
X_46_14                       1.000000
X_47_7                        1.000000
X_48_8                        1.000000
X_49_18                       1.000000
X_50_5                        1.000000
X_51_1                        1.000000
X_52_1                        1.000000
X_53_1                        1.000000
X_54_17                       1.000000
X_55_24                       1.000000
X_56_17                       1.000000
X_57_16                       1.000000
X_58_14                       1.000000
X_59_16                       1.000000
X_60_16                       1.000000
X_61_14                       1.000000
X_62_23                       1.000000
X_63_30                       1.000000
X_64_22                       1.000000
X_65_24                       1.000000
X_66_17                       1.000000
X_67_13                       1.000000
X_68_13                       1.000000
X_69_2                        1.000000
X_70_19                       1.000000
X_71_1                        1.000000
X_72_1                        1.000000
X_73_2                        1.000000
X_74_1                        1.000000
X_75_12                       1.000000
X_76_28                       1.000000
X_77_23                       1.000000
X_78_1                        1.000000
X_79_8                        1.000000
X_80_24                       1.000000
X_81_24                       1.000000
X_82_17                       1.000000
X_83_1                        1.000000
X_84_30                       1.000000
X_85_29                       1.000000
X_86_17                       1.000000
X_87_17                       1.000000
X_88_29                       1.000000
X_89_1                        1.000000
X_90_5                        1.000000
X_91_26                       1.000000
X_92_16                       1.000000
X_93_3                        1.000000
X_94_24                       1.000000
X_95_5                        1.000000
X_96_14                       1.000000
X_97_24                       1.000000
X_98_10                       1.000000
X_99_22                       1.000000
X_100_14                      1.000000
X_101_1                       1.000000
X_102_24                      1.000000
X_103_24                      1.000000
X_104_27                      1.000000
X_105_2                       1.000000
X_106_15                      1.000000
X_107_25                      1.000000
X_108_12                      1.000000
X_109_1                       1.000000
X_110_9                       1.000000
X_111_23                      1.000000
X_112_4                       1.000000
X_113_1                       1.000000
X_114_1                       1.000000
X_115_24                      1.000000
X_116_24                      1.000000
X_117_14                      1.000000
X_118_1                       1.000000
X_119_24                      1.000000
X_120_14                      1.000000
X_121_1                       1.000000
X_122_20                      1.000000
X_123_11                      1.000000
X_124_26                      1.000000
X_125_25                      1.000000
X_126_11                      1.000000
X_127_19                      1.000000
X_128_1                       1.000000
X_129_1                       1.000000
X_130_22                      1.000000
X_131_9                       1.000000
X_132_21                      1.000000
X_133_22                      1.000000
X_134_30                      1.000000
X_135_16                      1.000000
X_136_1                       1.000000
X_137_27                      1.000000
X_138_24                      1.000000
X_139_10                      1.000000
X_140_26                      1.000000
X_141_1                       1.000000
X_142_10                      1.000000
X_143_17                      1.000000
X_144_12                      1.000000
X_145_17                      1.000000
X_146_26                      1.000000
X_147_24                      1.000000
X_148_20                      1.000000
X_149_17                      1.000000
X_150_26                      1.000000
X_151_30                      1.000000
X_152_15                      1.000000
X_153_1                       1.000000
X_154_14                      1.000000
X_155_1                       1.000000
X_156_22                      1.000000
X_157_2                       1.000000
X_158_26                      1.000000
X_159_24                      1.000000
X_160_17                      1.000000
X_161_17                      1.000000
X_162_13                      1.000000
X_163_1                       1.000000
X_164_1                       1.000000
X_165_30                      1.000000
X_166_24                      1.000000
X_167_24                      1.000000
X_168_13                      1.000000
X_169_14                      1.000000
X_170_1                       1.000000
X_171_17                      1.000000
X_172_8                       1.000000
X_173_1                       1.000000
X_174_17                      1.000000
X_175_1                       1.000000
X_176_9                       1.000000
X_177_14                      1.000000
X_178_27                      1.000000
X_179_18                      1.000000
X_180_18                      1.000000
X_181_1                       1.000000
X_182_14                      1.000000
X_183_5                       1.000000
X_184_21                      1.000000
X_185_14                      1.000000
X_186_14                      1.000000
X_187_4                       1.000000
X_188_14                      1.000000
X_189_1                       1.000000
X_190_1                       1.000000
X_191_1                       1.000000
X_192_16                      1.000000
X_193_14                      1.000000
X_194_1                       1.000000
X_195_12                      1.000000
X_196_17                      1.000000
X_197_21                      1.000000
X_198_26                      1.000000
X_199_14                      1.000000
X_200_14                      1.000000
X_201_17                      1.000000
X_202_28                      1.000000
X_203_14                      1.000000
X_204_4                       1.000000
X_205_22                      1.000000
X_206_17                      1.000000
X_207_23                      1.000000
X_208_14                      1.000000
X_209_1                       1.000000
X_210_17                      1.000000
X_211_1                       1.000000
X_212_13                      1.000000
X_213_20                      1.000000
X_214_9                       1.000000
X_215_1                       1.000000
X_216_11                      1.000000
X_217_18                      1.000000
X_218_24                      1.000000
X_219_1                       1.000000
X_220_1                       1.000000
X_221_6                       1.000000
X_222_25                      1.000000
X_223_14                      1.000000
X_224_24                      1.000000
X_225_1                       1.000000
X_226_17                      1.000000
X_227_9                       1.000000
X_228_28                      1.000000
X_229_25                      1.000000
X_230_1                       1.000000
X_231_29                      1.000000
X_232_1                       1.000000
X_233_1                       1.000000
X_234_1                       1.000000
X_235_17                      1.000000
X_236_22                      1.000000
X_237_14                      1.000000
X_238_22                      1.000000
X_239_20                      1.000000
X_240_12                      1.000000
X_241_2                       1.000000
X_242_24                      1.000000
X_243_13                      1.000000
X_244_1                       1.000000
X_245_1                       1.000000
X_246_30                      1.000000
X_247_21                      1.000000
X_248_5                       1.000000
X_249_2                       1.000000
X_250_7                       1.000000
X_251_13                      1.000000
X_252_24                      1.000000
X_253_2                       1.000000
X_254_16                      1.000000
X_255_25                      1.000000
X_256_14                      1.000000
X_257_24                      1.000000
X_258_30                      1.000000
X_259_15                      1.000000
X_260_1                       1.000000
X_261_1                       1.000000
X_262_12                      1.000000
X_263_14                      1.000000
X_264_1                       1.000000
X_265_1                       1.000000
X_266_24                      1.000000
X_267_1                       1.000000
X_268_1                       1.000000
X_269_13                      1.000000
X_270_24                      1.000000
X_271_26                      1.000000
X_272_16                      1.000000
X_273_24                      1.000000
X_274_7                       1.000000
X_275_19                      1.000000
X_276_1                       1.000000
X_277_17                      1.000000
X_278_14                      1.000000
X_279_12                      1.000000
X_280_15                      1.000000
X_281_28                      1.000000
X_282_6                       1.000000
X_283_16                      1.000000
X_284_22                      1.000000
X_285_12                      1.000000
X_286_4                       1.000000
X_287_14                      1.000000
X_288_24                      1.000000
X_289_1                       1.000000
X_290_17                      1.000000
X_291_1                       1.000000
X_292_20                      1.000000
X_293_16                      1.000000
X_294_5                       1.000000
X_295_15                      1.000000
X_296_23                      1.000000
X_297_12                      1.000000
X_298_17                      1.000000
X_299_26                      1.000000
X_300_14                      1.000000
X_301_12                      1.000000
X_302_7                       1.000000
X_303_17                      1.000000
X_304_27                      1.000000
X_305_1                       1.000000
X_306_3                       1.000000
X_307_17                      1.000000
X_308_24                      1.000000
X_309_4                       1.000000
X_310_24                      1.000000
X_311_24                      1.000000
X_312_1                       1.000000
X_313_24                      1.000000
X_314_21                      1.000000
X_315_23                      1.000000
X_316_1                       1.000000
X_317_3                       1.000000
X_318_14                      1.000000
X_319_17                      1.000000
X_320_24                      1.000000
X_321_26                      1.000000
X_322_1                       1.000000
X_323_1                       1.000000
X_324_8                       1.000000
X_325_17                      1.000000
X_326_14                      1.000000
X_327_24                      1.000000
X_328_11                      1.000000
X_329_23                      1.000000
X_330_24                      1.000000
X_331_1                       1.000000
X_332_1                       1.000000
X_333_14                      1.000000
X_334_2                       1.000000
X_335_26                      1.000000
X_336_14                      1.000000
X_337_12                      1.000000
X_338_13                      1.000000
X_339_5                       1.000000
X_340_29                      1.000000
X_341_6                       1.000000
X_342_23                      1.000000
X_343_14                      1.000000
X_344_12                      1.000000
X_345_12                      1.000000
X_346_17                      1.000000
X_347_1                       1.000000
X_348_1                       1.000000
X_349_2                       1.000000
X_350_15                      1.000000
X_351_14                      1.000000
X_352_29                      1.000000
X_353_4                       1.000000
X_354_12                      1.000000
X_355_7                       1.000000
X_356_19                      1.000000
X_357_8                       1.000000
X_358_1                       1.000000
X_359_6                       1.000000
X_360_1                       1.000000
X_361_26                      1.000000
X_362_11                      1.000000
X_363_4                       1.000000
X_364_24                      1.000000
X_365_17                      1.000000
X_366_28                      1.000000
X_367_1                       1.000000
X_368_29                      1.000000
X_369_1                       1.000000
X_370_17                      1.000000
X_371_9                       1.000000
X_372_1                       1.000000
X_373_12                      1.000000
X_374_14                      1.000000
X_375_1                       1.000000
X_376_22                      1.000000
X_377_6                       1.000000
X_378_19                      1.000000
X_379_3                       1.000000
X_380_1                       1.000000
X_381_24                      1.000000
X_382_14                      1.000000
X_383_17                      1.000000
X_384_1                       1.000000
X_385_4                       1.000000
X_386_5                       1.000000
X_387_1                       1.000000
X_388_16                      1.000000
X_389_1                       1.000000
X_390_1                       1.000000
X_391_2                       1.000000
X_392_1                       1.000000
X_393_2                       1.000000
X_394_26                      1.000000
X_395_7                       1.000000
X_396_3                       1.000000
X_397_17                      1.000000
X_398_24                      1.000000
X_399_13                      1.000000
X_400_10                      1.000000
X_401_13                      1.000000
X_402_1                       1.000000
X_403_2                       1.000000
X_404_15                      1.000000
X_405_11                      1.000000
X_406_17                      1.000000
X_407_3                       1.000000
X_408_11                      1.000000
X_409_1                       1.000000
X_410_17                      1.000000
X_411_22                      1.000000
X_412_17                      1.000000
X_413_1                       1.000000
X_414_23                      1.000000
X_415_4                       1.000000
X_416_29                      1.000000
X_417_24                      1.000000
X_418_6                       1.000000
X_419_24                      1.000000
X_420_23                      1.000000
X_421_14                      1.000000
X_422_8                       1.000000
X_423_18                      1.000000
X_424_1                       1.000000
X_425_1                       1.000000
X_426_2                       1.000000
X_427_26                      1.000000
X_428_24                      1.000000
X_429_1                       1.000000
X_430_12                      1.000000
X_431_16                      1.000000
X_432_17                      1.000000
X_433_5                       1.000000
X_434_4                       1.000000
X_435_19                      1.000000
X_436_8                       1.000000
X_437_24                      1.000000
X_438_1                       1.000000
X_439_17                      1.000000
X_440_24                      1.000000
X_441_24                      1.000000
X_442_1                       1.000000
X_443_28                      1.000000
X_444_23                      1.000000
X_445_14                      1.000000
X_446_8                       1.000000
X_447_12                      1.000000
X_448_24                      1.000000
X_449_16                      1.000000
X_450_17                      1.000000
X_451_27                      1.000000
X_452_1                       1.000000
X_453_1                       1.000000
X_454_11                      1.000000
X_455_21                      1.000000
X_456_5                       1.000000
X_457_27                      1.000000
X_458_30                      1.000000
X_459_21                      1.000000
X_460_22                      1.000000
X_461_22                      1.000000
X_462_21                      1.000000
X_463_15                      1.000000
X_464_10                      1.000000
X_465_17                      1.000000
X_466_26                      1.000000
X_467_1                       1.000000
X_468_25                      1.000000
X_469_1                       1.000000
X_470_9                       1.000000
X_471_21                      1.000000
X_472_14                      1.000000
X_473_6                       1.000000
X_474_14                      1.000000
X_475_24                      1.000000
X_476_5                       1.000000
X_477_5                       1.000000
X_478_17                      1.000000
X_479_20                      1.000000
X_480_12                      1.000000
X_481_16                      1.000000
X_482_1                       1.000000
X_483_1                       1.000000
X_484_24                      1.000000
X_485_24                      1.000000
X_486_26                      1.000000
X_487_17                      1.000000
X_488_15                      1.000000
X_489_15                      1.000000
X_490_3                       1.000000
X_491_12                      1.000000
X_492_13                      1.000000
X_493_8                       1.000000
X_494_24                      1.000000
X_495_24                      1.000000
X_496_18                      1.000000
X_497_18                      1.000000
X_498_7                       1.000000
X_499_24                      1.000000
X_500_1                       1.000000
All other variables in the range 1-15001 are 0.
